
Gurobi 9.5.0 (linux64) logging started Wed Nov  8 21:27:27 2023

Set parameter LogFile to value "/lustre1/scratch/348/vsc34888/JointResearch/05.Models/06.Benchmarking/G.Representative_days_based_on_Line_Benefit_NN_OC_fy_2/3-bus_ByStages_nc10/openStarNet_3-bus_ByStages_nc10.log"
Set parameter Method to value 2
Set parameter MIPFocus to value 1
Set parameter Presolve to value 2
Set parameter RINS to value 100
Set parameter MIPGap to value 0.01
Set parameter Threads to value 36
Set parameter TimeLimit to value 604800
Set parameter IterationLimit to value 760000000
Gurobi Optimizer version 9.5.0 build v9.5.0rc5 (linux64)
Thread count: 36 physical cores, 36 logical processors, using up to 36 threads
Optimize a model with 663 rows, 310 columns and 1915 nonzeros
Model fingerprint: 0x6006e6ce
Variable types: 301 continuous, 9 integer (9 binary)
Coefficient statistics:
  Matrix range     [1e-02, 2e+03]
  Objective range  [1e+00, 1e+00]
  Bounds range     [8e-06, 2e+00]
  RHS range        [8e-06, 1e+00]
Presolve removed 243 rows and 74 columns
Presolve time: 0.00s
Presolved: 420 rows, 236 columns, 1487 nonzeros
Variable types: 227 continuous, 9 integer (9 binary)
Found heuristic solution: objective 82.6868551
Root relaxation presolved: 420 rows, 236 columns, 1487 nonzeros

Root barrier log...

Ordering time: 0.00s

Barrier statistics:
 AA' NZ     : 9.840e+03
 Factor NZ  : 4.681e+04 (roughly 1 MB of memory)
 Factor Ops : 6.969e+06 (less than 1 second per iteration)
 Threads    : 1

                  Objective                Residual
Iter       Primal          Dual         Primal    Dual     Compl     Time
   0   3.44438225e+05 -4.81748670e+07  1.47e+01 3.86e+02  8.83e+04     0s
   1   1.54572515e+04 -9.45383242e+05  7.34e-01 4.18e-11  2.42e+03     0s
   2   1.59288066e+03 -5.98376541e+05  5.66e-02 3.13e-10  7.94e+02     0s
   3   7.62212302e+02 -1.94019814e+04  9.12e-04 6.18e-11  2.43e+01     0s
   4   2.64128676e+02 -8.74101242e+02  2.93e-10 3.01e-12  1.37e+00     0s
   5   1.05319344e+02 -7.85368999e+01  1.42e-10 5.25e-12  2.21e-01     0s
   6   8.06846599e+01  6.42985809e+01  1.04e-10 3.64e-12  1.97e-02     0s
   7   7.43251924e+01  7.13952466e+01  5.34e-11 1.82e-12  3.52e-03     0s
   8   7.34335467e+01  7.31777084e+01  2.33e-09 9.09e-13  3.07e-04     0s
   9   7.33284306e+01  7.32976390e+01  9.61e-09 3.64e-12  3.70e-05     0s
  10   7.33044279e+01  7.33043836e+01  7.25e-10 3.64e-12  5.32e-08     0s
  11   7.33043986e+01  7.33043986e+01  9.48e-10 1.82e-12  1.43e-13     0s

Barrier solved model in 11 iterations and 0.04 seconds (0.02 work units)
Optimal objective 7.33043986e+01


Root relaxation: objective 7.330440e+01, 45 iterations, 0.03 seconds (0.01 work units)

    Nodes    |    Current Node    |     Objective Bounds      |     Work
 Expl Unexpl |  Obj  Depth IntInf | Incumbent    BestBd   Gap | It/Node Time

     0     0   73.30440    0    3   82.68686   73.30440  11.3%     -    0s
H    0     0                      73.7818896   73.30440  0.65%     -    0s

Cutting planes:
  MIR: 10

Explored 1 nodes (45 simplex iterations) in 0.04 seconds (0.02 work units)
Thread count was 36 (of 36 available processors)

Solution count 2: 73.7819 82.6869 

Optimal solution found (tolerance 1.00e-02)
Best objective 7.378188955782e+01, best bound 7.330439860449e+01, gap 0.6472%

Gurobi 9.5.0 (linux64) logging started Wed Nov  8 21:27:27 2023

Set parameter LogFile to value "/lustre1/scratch/348/vsc34888/JointResearch/05.Models/06.Benchmarking/G.Representative_days_based_on_Line_Benefit_NN_OC_fy_2/3-bus_ByStages_nc10/openStarNet_3-bus_ByStages_nc10.log"
Set parameter Method to value 2
Set parameter MIPFocus to value 1
Set parameter Presolve to value 2
Set parameter RINS to value 100
Set parameter MIPGap to value 0.01
Set parameter Threads to value 36
Set parameter TimeLimit to value 604800
Set parameter IterationLimit to value 760000000
No parameters matching 'relax_integrality' found
Gurobi Optimizer version 9.5.0 build v9.5.0rc5 (linux64)
Thread count: 36 physical cores, 36 logical processors, using up to 36 threads
Optimize a model with 663 rows, 301 columns and 1546 nonzeros
Model fingerprint: 0x6e7ec25c
Coefficient statistics:
  Matrix range     [1e-02, 2e+03]
  Objective range  [1e+00, 1e+00]
  Bounds range     [8e-06, 2e+00]
  RHS range        [8e-06, 2e+00]
Presolve removed 593 rows and 164 columns
Presolve time: 0.00s
Presolved: 70 rows, 137 columns, 267 nonzeros

Ordering time: 0.00s

Barrier statistics:
 AA' NZ     : 1.700e+02
 Factor NZ  : 2.800e+02
 Factor Ops : 1.400e+03 (less than 1 second per iteration)
 Threads    : 1

                  Objective                Residual
Iter       Primal          Dual         Primal    Dual     Compl     Time
   0   7.30034884e+05 -4.52336357e+07  3.44e+01 1.54e+03  2.48e+05     0s
   1   4.03670131e+04 -6.61448794e+05  2.32e+00 1.09e-11  6.65e+03     0s
   2   2.12247196e+03 -1.10755329e+05  3.18e-02 3.27e-11  4.55e+02     0s
   3   1.00530232e+03 -2.09680041e+03  3.27e-04 5.46e-12  1.14e+01     0s
   4   2.47074783e+02 -4.41400153e+02  2.94e-05 7.07e-12  2.51e+00     0s
   5   1.34998498e+02 -7.95446856e+01  5.65e-06 1.82e-12  7.83e-01     0s
   6   9.73694451e+01  6.95487355e+00  2.03e-06 5.54e-12  3.30e-01     0s
   7   8.08843081e+01  4.96405802e+01  6.95e-07 1.82e-12  1.14e-01     0s
   8   7.49286432e+01  7.19374271e+01  8.73e-08 1.82e-12  1.09e-02     0s
   9   7.38054177e+01  7.37316861e+01  4.34e-11 3.64e-12  2.69e-04     0s
  10   7.37820268e+01  7.37799370e+01  3.48e-12 1.82e-12  7.63e-06     0s
  11   7.37818910e+01  7.37818831e+01  2.69e-12 3.64e-12  2.86e-08     0s
  12   7.37818896e+01  7.37818896e+01  4.58e-12 3.64e-12  3.07e-14     0s

Barrier solved model in 12 iterations and 0.00 seconds (0.00 work units)
Optimal objective 7.37818896e+01

Crossover log...

       0 DPushes remaining with DInf 0.0000000e+00                 0s

      10 PPushes remaining with PInf 0.0000000e+00                 0s
       0 PPushes remaining with PInf 0.0000000e+00                 0s

  Push phase complete: Pinf 0.0000000e+00, Dinf 1.3500312e-13      0s

Iteration    Objective       Primal Inf.    Dual Inf.      Time
      13    7.3781890e+01   0.000000e+00   0.000000e+00      0s

Solved in 13 iterations and 0.00 seconds (0.00 work units)
Optimal objective  7.378188956e+01
